NAME /Users/henri/Research/solvers/instances/idol-instances/robust/collection/spp_dkp_Lefebvre_et_al_2026/shortest_path_8_2/models/uncertain_ctr/model
ROWS
 N  OBJ
 E  flow_cons_inner_nodes[0]
 E  flow_cons_inner_nodes[2]
 E  flow_cons_inner_nodes[3]
 E  flow_cons_inner_nodes[5]
 E  flow_cons_inner_nodes[6]
 E  flow_cons_inner_nodes[7]
 E  flow_cons_source
 E  flow_cons_target
 G  c_15545
COLUMNS
    z          OBJ        1
    z          c_15545    1
    MARKER    'MARKER'                 'INTORG'
    y[0,1]     OBJ        0
    y[0,1]     c_15545    -28.6
    y[0,1]     flow_cons_source -1
    y[0,1]     flow_cons_inner_nodes[0] -1
    y[0,2]     OBJ        0
    y[0,2]     c_15545    -58.14
    y[0,2]     flow_cons_inner_nodes[2] 1
    y[0,2]     flow_cons_inner_nodes[0] -1
    y[0,3]     OBJ        0
    y[0,3]     c_15545    -38.21
    y[0,3]     flow_cons_inner_nodes[3] 1
    y[0,3]     flow_cons_inner_nodes[0] -1
    y[0,4]     OBJ        0
    y[0,4]     c_15545    -64.76
    y[0,4]     flow_cons_target 1
    y[0,4]     flow_cons_inner_nodes[0] -1
    y[0,5]     OBJ        0
    y[0,5]     c_15545    -57.27
    y[0,5]     flow_cons_inner_nodes[5] 1
    y[0,5]     flow_cons_inner_nodes[0] -1
    y[0,6]     OBJ        0
    y[0,6]     c_15545    -68.01
    y[0,6]     flow_cons_inner_nodes[6] 1
    y[0,6]     flow_cons_inner_nodes[0] -1
    y[0,7]     OBJ        0
    y[0,7]     c_15545    -60.96
    y[0,7]     flow_cons_inner_nodes[7] 1
    y[0,7]     flow_cons_inner_nodes[0] -1
    y[1,0]     OBJ        0
    y[1,0]     c_15545    -28.6
    y[1,0]     flow_cons_source 1
    y[1,0]     flow_cons_inner_nodes[0] 1
    y[1,3]     OBJ        0
    y[1,3]     c_15545    -64.51
    y[1,3]     flow_cons_source 1
    y[1,3]     flow_cons_inner_nodes[3] 1
    y[2,0]     OBJ        0
    y[2,0]     c_15545    -58.14
    y[2,0]     flow_cons_inner_nodes[2] -1
    y[2,0]     flow_cons_inner_nodes[0] 1
    y[2,3]     OBJ        0
    y[2,3]     c_15545    -34.53
    y[2,3]     flow_cons_inner_nodes[3] 1
    y[2,3]     flow_cons_inner_nodes[2] -1
    y[2,4]     OBJ        0
    y[2,4]     c_15545    -29.83
    y[2,4]     flow_cons_target 1
    y[2,4]     flow_cons_inner_nodes[2] -1
    y[2,5]     OBJ        0
    y[2,5]     c_15545    -16.12
    y[2,5]     flow_cons_inner_nodes[5] 1
    y[2,5]     flow_cons_inner_nodes[2] -1
    y[2,6]     OBJ        0
    y[2,6]     c_15545    -61.68
    y[2,6]     flow_cons_inner_nodes[6] 1
    y[2,6]     flow_cons_inner_nodes[2] -1
    y[2,7]     OBJ        0
    y[2,7]     c_15545    -2.83
    y[2,7]     flow_cons_inner_nodes[7] 1
    y[2,7]     flow_cons_inner_nodes[2] -1
    y[3,0]     OBJ        0
    y[3,0]     c_15545    -38.21
    y[3,0]     flow_cons_inner_nodes[3] -1
    y[3,0]     flow_cons_inner_nodes[0] 1
    y[3,1]     OBJ        0
    y[3,1]     c_15545    -64.51
    y[3,1]     flow_cons_source -1
    y[3,1]     flow_cons_inner_nodes[3] -1
    y[3,2]     OBJ        0
    y[3,2]     c_15545    -34.53
    y[3,2]     flow_cons_inner_nodes[3] -1
    y[3,2]     flow_cons_inner_nodes[2] 1
    y[3,4]     OBJ        0
    y[3,4]     c_15545    -27.31
    y[3,4]     flow_cons_target 1
    y[3,4]     flow_cons_inner_nodes[3] -1
    y[3,5]     OBJ        0
    y[3,5]     c_15545    -24.41
    y[3,5]     flow_cons_inner_nodes[5] 1
    y[3,5]     flow_cons_inner_nodes[3] -1
    y[3,6]     OBJ        0
    y[3,6]     c_15545    -36.12
    y[3,6]     flow_cons_inner_nodes[6] 1
    y[3,6]     flow_cons_inner_nodes[3] -1
    y[3,7]     OBJ        0
    y[3,7]     c_15545    -36.88
    y[3,7]     flow_cons_inner_nodes[7] 1
    y[3,7]     flow_cons_inner_nodes[3] -1
    y[4,0]     OBJ        0
    y[4,0]     c_15545    -64.76
    y[4,0]     flow_cons_target -1
    y[4,0]     flow_cons_inner_nodes[0] 1
    y[4,2]     OBJ        0
    y[4,2]     c_15545    -29.83
    y[4,2]     flow_cons_target -1
    y[4,2]     flow_cons_inner_nodes[2] 1
    y[4,3]     OBJ        0
    y[4,3]     c_15545    -27.31
    y[4,3]     flow_cons_target -1
    y[4,3]     flow_cons_inner_nodes[3] 1
    y[4,5]     OBJ        0
    y[4,5]     flow_cons_target -1
    y[4,5]     c_15545    -14.21
    y[4,5]     flow_cons_inner_nodes[5] 1
    y[4,6]     OBJ        0
    y[4,6]     c_15545    -35.06
    y[4,6]     flow_cons_target -1
    y[4,6]     flow_cons_inner_nodes[6] 1
    y[4,7]     OBJ        0
    y[4,7]     c_15545    -30.23
    y[4,7]     flow_cons_target -1
    y[4,7]     flow_cons_inner_nodes[7] 1
    y[5,0]     OBJ        0
    y[5,0]     c_15545    -57.27
    y[5,0]     flow_cons_inner_nodes[5] -1
    y[5,0]     flow_cons_inner_nodes[0] 1
    y[5,2]     OBJ        0
    y[5,2]     c_15545    -16.12
    y[5,2]     flow_cons_inner_nodes[5] -1
    y[5,2]     flow_cons_inner_nodes[2] 1
    y[5,3]     OBJ        0
    y[5,3]     c_15545    -24.41
    y[5,3]     flow_cons_inner_nodes[5] -1
    y[5,3]     flow_cons_inner_nodes[3] 1
    y[5,4]     OBJ        0
    y[5,4]     flow_cons_target 1
    y[5,4]     c_15545    -14.21
    y[5,4]     flow_cons_inner_nodes[5] -1
    y[5,6]     OBJ        0
    y[5,6]     flow_cons_inner_nodes[6] 1
    y[5,6]     c_15545    -45.88
    y[5,6]     flow_cons_inner_nodes[5] -1
    y[5,7]     OBJ        0
    y[5,7]     flow_cons_inner_nodes[7] 1
    y[5,7]     c_15545    -17.09
    y[5,7]     flow_cons_inner_nodes[5] -1
    y[6,0]     OBJ        0
    y[6,0]     c_15545    -68.01
    y[6,0]     flow_cons_inner_nodes[6] -1
    y[6,0]     flow_cons_inner_nodes[0] 1
    y[6,2]     OBJ        0
    y[6,2]     c_15545    -61.68
    y[6,2]     flow_cons_inner_nodes[6] -1
    y[6,2]     flow_cons_inner_nodes[2] 1
    y[6,3]     OBJ        0
    y[6,3]     c_15545    -36.12
    y[6,3]     flow_cons_inner_nodes[6] -1
    y[6,3]     flow_cons_inner_nodes[3] 1
    y[6,4]     OBJ        0
    y[6,4]     c_15545    -35.06
    y[6,4]     flow_cons_target 1
    y[6,4]     flow_cons_inner_nodes[6] -1
    y[6,5]     OBJ        0
    y[6,5]     flow_cons_inner_nodes[6] -1
    y[6,5]     c_15545    -45.88
    y[6,5]     flow_cons_inner_nodes[5] 1
    y[6,7]     OBJ        0
    y[6,7]     c_15545    -62.94
    y[6,7]     flow_cons_inner_nodes[7] 1
    y[6,7]     flow_cons_inner_nodes[6] -1
    y[7,0]     OBJ        0
    y[7,0]     c_15545    -60.96
    y[7,0]     flow_cons_inner_nodes[7] -1
    y[7,0]     flow_cons_inner_nodes[0] 1
    y[7,2]     OBJ        0
    y[7,2]     c_15545    -2.83
    y[7,2]     flow_cons_inner_nodes[7] -1
    y[7,2]     flow_cons_inner_nodes[2] 1
    y[7,3]     OBJ        0
    y[7,3]     c_15545    -36.88
    y[7,3]     flow_cons_inner_nodes[7] -1
    y[7,3]     flow_cons_inner_nodes[3] 1
    y[7,4]     OBJ        0
    y[7,4]     c_15545    -30.23
    y[7,4]     flow_cons_target 1
    y[7,4]     flow_cons_inner_nodes[7] -1
    y[7,5]     OBJ        0
    y[7,5]     flow_cons_inner_nodes[7] -1
    y[7,5]     c_15545    -17.09
    y[7,5]     flow_cons_inner_nodes[5] 1
    y[7,6]     OBJ        0
    y[7,6]     c_15545    -62.94
    y[7,6]     flow_cons_inner_nodes[7] -1
    y[7,6]     flow_cons_inner_nodes[6] 1
    MARKER    'MARKER'                 'INTEND'
RHS
    RHS       flow_cons_inner_nodes[0] -0
    RHS       flow_cons_inner_nodes[2] -0
    RHS       flow_cons_inner_nodes[3] -0
    RHS       flow_cons_inner_nodes[5] -0
    RHS       flow_cons_inner_nodes[6] -0
    RHS       flow_cons_inner_nodes[7] -0
    RHS       flow_cons_source 1
    RHS       flow_cons_target 1
    RHS       c_15545    -0
BOUNDS
 LI BND       y[0,1]     0
 UI BND       y[0,1]     1
 LI BND       y[0,2]     0
 UI BND       y[0,2]     1
 LI BND       y[0,3]     0
 UI BND       y[0,3]     1
 LI BND       y[0,4]     0
 UI BND       y[0,4]     1
 LI BND       y[0,5]     0
 UI BND       y[0,5]     1
 LI BND       y[0,6]     0
 UI BND       y[0,6]     1
 LI BND       y[0,7]     0
 UI BND       y[0,7]     1
 LI BND       y[1,0]     0
 UI BND       y[1,0]     1
 LI BND       y[1,3]     0
 UI BND       y[1,3]     1
 LI BND       y[2,0]     0
 UI BND       y[2,0]     1
 LI BND       y[2,3]     0
 UI BND       y[2,3]     1
 LI BND       y[2,4]     0
 UI BND       y[2,4]     1
 LI BND       y[2,5]     0
 UI BND       y[2,5]     1
 LI BND       y[2,6]     0
 UI BND       y[2,6]     1
 LI BND       y[2,7]     0
 UI BND       y[2,7]     1
 LI BND       y[3,0]     0
 UI BND       y[3,0]     1
 LI BND       y[3,1]     0
 UI BND       y[3,1]     1
 LI BND       y[3,2]     0
 UI BND       y[3,2]     1
 LI BND       y[3,4]     0
 UI BND       y[3,4]     1
 LI BND       y[3,5]     0
 UI BND       y[3,5]     1
 LI BND       y[3,6]     0
 UI BND       y[3,6]     1
 LI BND       y[3,7]     0
 UI BND       y[3,7]     1
 LI BND       y[4,0]     0
 UI BND       y[4,0]     1
 LI BND       y[4,2]     0
 UI BND       y[4,2]     1
 LI BND       y[4,3]     0
 UI BND       y[4,3]     1
 LI BND       y[4,5]     0
 UI BND       y[4,5]     1
 LI BND       y[4,6]     0
 UI BND       y[4,6]     1
 LI BND       y[4,7]     0
 UI BND       y[4,7]     1
 LI BND       y[5,0]     0
 UI BND       y[5,0]     1
 LI BND       y[5,2]     0
 UI BND       y[5,2]     1
 LI BND       y[5,3]     0
 UI BND       y[5,3]     1
 LI BND       y[5,4]     0
 UI BND       y[5,4]     1
 LI BND       y[5,6]     0
 UI BND       y[5,6]     1
 LI BND       y[5,7]     0
 UI BND       y[5,7]     1
 LI BND       y[6,0]     0
 UI BND       y[6,0]     1
 LI BND       y[6,2]     0
 UI BND       y[6,2]     1
 LI BND       y[6,3]     0
 UI BND       y[6,3]     1
 LI BND       y[6,4]     0
 UI BND       y[6,4]     1
 LI BND       y[6,5]     0
 UI BND       y[6,5]     1
 LI BND       y[6,7]     0
 UI BND       y[6,7]     1
 LI BND       y[7,0]     0
 UI BND       y[7,0]     1
 LI BND       y[7,2]     0
 UI BND       y[7,2]     1
 LI BND       y[7,3]     0
 UI BND       y[7,3]     1
 LI BND       y[7,4]     0
 UI BND       y[7,4]     1
 LI BND       y[7,5]     0
 UI BND       y[7,5]     1
 LI BND       y[7,6]     0
 UI BND       y[7,6]     1
 LO BND       z          0
 UP BND       z          2215.7
ENDATA
